p cnf 917 2408
e 39 42 43 1 2 3 4 5 6 7 8 9 10 11 12 13 14 15 16 0
a 18 0
e 17 19 20 21 22 23 24 25 26 27 28 29 30 31 32 33 34 35 36 37 38 40 41 44 45 46 47 48 49 50 51 52 53 54 55 56 57 58 59 60 61 62 63 64 65 66 67 68 69 70 71 72 73 74 75 76 77 78 79 80 81 82 83 84 85 86 87 88 89 90 91 92 93 94 95 96 97 98 99 100 101 102 103 104 105 106 107 108 109 110 111 112 113 114 115 116 117 118 119 120 121 122 123 124 125 126 127 128 129 130 131 132 133 134 135 136 137 138 139 140 141 142 143 144 145 146 147 148 149 150 151 152 153 154 155 156 157 158 159 160 161 162 163 164 165 166 167 168 169 170 171 172 173 174 175 176 177 178 179 180 181 182 183 184 185 186 187 188 189 190 191 192 193 194 195 196 197 198 199 200 201 202 203 204 205 206 207 208 209 210 211 212 213 214 215 216 217 218 219 220 221 222 223 224 225 226 260 263 264 235 253 254 255 256 257 258 259 300 301 322 324 330 340 343 346 0
a 231 0
e 230 232 233 234 236 237 238 239 240 241 242 243 244 245 246 247 248 249 250 251 252 261 262 265 266 267 268 269 270 271 272 273 274 275 276 277 278 279 280 281 282 283 284 285 286 287 288 289 290 291 292 293 294 295 296 297 298 299 302 303 304 305 306 307 308 309 310 311 312 313 314 315 316 317 318 319 320 321 323 325 326 327 328 329 331 332 333 334 335 336 337 338 339 341 342 344 345 347 348 349 350 351 352 353 354 355 356 357 358 359 360 361 362 363 364 365 366 367 368 369 370 371 372 373 374 375 376 377 378 379 380 381 382 383 384 385 386 387 388 389 390 391 392 393 394 395 396 397 398 399 400 401 402 403 404 405 406 407 408 409 410 411 412 413 414 415 416 417 418 419 420 421 422 423 424 425 426 427 428 429 430 431 432 433 434 435 436 437 438 439 440 441 442 443 444 445 446 447 448 449 450 451 452 453 454 455 489 492 493 464 482 483 484 485 486 487 488 529 530 551 553 559 569 572 575 0
a 460 0
e 459 461 462 463 465 466 467 468 469 470 471 472 473 474 475 476 477 478 479 480 481 490 491 494 495 496 497 498 499 500 501 502 503 504 505 506 507 508 509 510 511 512 513 514 515 516 517 518 519 520 521 522 523 524 525 526 527 528 531 532 533 534 535 536 537 538 539 540 541 542 543 544 545 546 547 548 549 550 552 554 555 556 557 558 560 561 562 563 564 565 566 567 568 570 571 573 574 576 577 578 579 580 581 582 583 584 585 586 587 588 589 590 591 592 593 594 595 596 597 598 599 600 601 602 603 604 605 606 607 608 609 610 611 612 613 614 615 616 617 618 619 620 621 622 623 624 625 626 627 628 629 630 631 632 633 634 635 636 637 638 639 640 641 642 643 644 645 646 647 648 649 650 651 652 653 654 655 656 657 658 659 660 661 662 663 664 665 666 667 668 669 670 671 672 673 674 675 676 677 678 679 680 681 682 683 684 718 721 722 693 711 712 713 714 715 716 717 758 759 780 782 788 798 801 804 0
a 689 0
e 688 690 691 692 694 695 696 697 698 699 700 701 702 703 704 705 706 707 708 709 710 719 720 723 724 725 726 727 728 729 730 731 732 733 734 735 736 737 738 739 740 741 742 743 744 745 746 747 748 749 750 751 752 753 754 755 756 757 760 761 762 763 764 765 766 767 768 769 770 771 772 773 774 775 776 777 778 779 781 783 784 785 786 787 789 790 791 792 793 794 795 796 797 799 800 802 803 805 806 807 808 809 810 811 812 813 814 815 816 817 818 819 820 821 822 823 824 825 826 827 828 829 830 831 832 833 834 835 836 837 838 839 840 841 842 843 844 845 846 847 848 849 850 851 852 853 854 855 856 857 858 859 860 861 862 863 864 865 866 867 868 869 870 871 872 873 874 875 876 877 878 879 880 881 882 883 884 885 886 887 888 889 890 891 892 893 894 895 896 897 898 899 900 901 902 903 904 905 906 907 908 909 910 911 912 913 914 915 916 0
-1 0
-2 0
-3 0
-4 0
-5 0
-6 0
-7 0
-8 0
-9 0
-10 0
-11 0
-12 0
-13 0
-14 0
-15 0
-16 0
17 0
-21 -19 0
-21 -20 0
21 19 20 0
-23 -7 0
-23 -22 0
23 7 22 0
-25 -22 0
-25 -24 0
25 22 24 0
-27 -22 0
-27 -26 0
27 22 26 0
-30 -28 0
-30 -29 0
30 28 29 0
-33 -31 0
-33 -32 0
33 31 32 0
-35 -31 0
-35 -34 0
35 31 34 0
-38 -36 0
-38 -37 0
38 36 37 0
40 -41 0
41 -40 0
41 -18 0
41 -39 0
18 39 -41 0
44 -45 0
45 -44 0
45 46 0
45 47 0
-45 -46 -47 0
48 -49 0
49 -48 0
49 50 0
49 51 0
-49 -50 -51 0
52 -53 0
53 -52 0
53 54 0
53 55 0
-53 -54 -55 0
58 56 -59 0
58 59 -56 0
57 -58 -59 0
59 -58 -57 0
62 60 -63 0
62 63 -60 0
61 -62 -63 0
63 -62 -61 0
66 64 -67 0
66 67 -64 0
65 -66 -67 0
67 -66 -65 0
70 68 -71 0
70 71 -68 0
69 -70 -71 0
71 -70 -69 0
74 72 -75 0
74 75 -72 0
73 -74 -75 0
75 -74 -73 0
78 -76 0
78 -77 0
76 77 -78 0
79 10 -80 0
79 80 -10 0
9 -79 -80 0
80 -79 -9 0
42 20 0
-42 -20 0
19 81 0
19 82 0
-19 -81 -82 0
83 84 0
-83 -84 0
85 -87 0
86 -87 0
87 -85 -86 0
10 88 0
-10 -88 0
89 -91 0
90 -91 0
91 -89 -90 0
92 -94 0
93 -94 0
94 -92 -93 0
95 -85 0
96 -85 0
85 -95 -96 0
97 -98 0
1 -98 0
98 -97 -1 0
16 28 0
-16 -28 0
96 -99 0
95 -99 0
99 -96 -95 0
15 100 0
-15 -100 0
101 100 0
101 82 0
-101 -100 -82 0
102 103 0
-102 -103 0
-105 -104 0
-105 -11 0
105 104 11 0
108 106 0
108 107 0
-108 -106 -107 0
91 109 0
-91 -109 0
11 110 0
-11 -110 0
2 -111 0
5 -111 0
111 -2 -5 0
1 112 0
-1 -112 0
112 74 0
-112 -74 0
73 113 0
-73 -113 0
14 93 0
-14 -93 0
5 114 0
-5 -114 0
114 115 0
-114 -115 0
3 66 0
-3 -66 0
-116 -12 0
-116 -14 0
116 12 14 0
2 117 0
-2 -117 0
118 -13 0
118 -104 0
13 104 -118 0
119 120 0
-119 -120 0
123 -121 0
123 -122 0
121 122 -123 0
-125 -117 0
-125 -124 0
125 117 124 0
90 -55 0
126 -55 0
55 -90 -126 0
127 -129 0
128 -129 0
129 -127 -128 0
130 -127 0
131 -127 0
127 -130 -131 0
121 62 0
121 128 0
-121 -62 -128 0
132 70 0
-132 -70 0
-134 -118 0
-134 -133 0
134 118 133 0
131 135 0
-131 -135 0
136 3 0
136 6 0
-136 -3 -6 0
106 58 0
-106 -58 0
134 47 0
-134 -47 0
11 119 0
-11 -119 0
119 137 0
-119 -137 0
97 -138 0
125 -138 0
138 -97 -125 0
12 104 0
-12 -104 0
104 139 0
-104 -139 0
83 140 0
-83 -140 0
1 124 0
-1 -124 0
14 131 0
-14 -131 0
3 141 0
-3 -141 0
-144 -142 0
-144 -143 0
144 142 143 0
13 83 0
-13 -83 0
5 145 0
-5 -145 0
6 106 0
-6 -106 0
146 -147 0
127 -147 0
147 -146 -127 0
2 132 0
-2 -132 0
-148 -136 0
-148 -2 0
148 136 2 0
4 62 0
-4 -62 0
81 43 0
81 100 0
-81 -43 -100 0
149 128 0
-149 -128 0
-150 -62 0
-150 -5 0
150 62 5 0
97 148 0
97 150 0
-97 -148 -150 0
151 132 0
151 6 0
-151 -132 -6 0
152 145 0
152 4 0
-152 -145 -4 0
-153 -152 0
-153 -141 0
153 152 141 0
-154 -151 0
-154 -124 0
154 151 124 0
130 12 0
130 13 0
-130 -12 -13 0
122 127 0
122 146 0
-122 -127 -146 0
149 88 0
149 9 0
-149 -88 -9 0
156 -155 0
156 -124 0
155 124 -156 0
157 156 0
157 72 0
-157 -156 -72 0
57 157 0
57 113 0
-57 -157 -113 0
-56 -155 0
-56 -158 0
56 155 158 0
146 153 0
146 154 0
-146 -153 -154 0
60 87 0
60 159 0
-60 -87 -159 0
-61 -141 0
-61 -160 0
61 141 160 0
160 138 0
160 129 0
-160 -138 -129 0
96 127 0
96 124 0
-96 -127 -124 0
86 147 0
86 117 0
-86 -147 -117 0
158 98 0
158 129 0
-158 -98 -129 0
99 69 0
-99 -69 0
158 68 0
-158 -68 0
95 -29 0
95 -128 0
29 128 -95 0
95 73 0
-95 -73 0
64 99 0
64 86 0
-64 -99 -86 0
160 65 0
-160 -65 0
3 -161 0
150 -161 0
161 -3 -150 0
-72 -122 0
-72 -149 0
72 122 149 0
159 147 0
159 141 0
-159 -147 -141 0
162 123 0
162 159 0
-162 -123 -159 0
163 162 0
163 115 0
-163 -162 -115 0
164 65 0
164 161 0
-164 -65 -161 0
76 163 0
76 164 0
-76 -163 -164 0
64 -77 0
115 -77 0
77 -64 -115 0
29 130 0
29 93 0
-29 -130 -93 0
29 79 0
-29 -79 0
26 8 0
26 7 0
-26 -8 -7 0
24 8 7 0
24 -8 -7 0
7 -24 -8 0
8 -24 -7 0
22 79 0
22 28 0
-22 -79 -28 0
105 -165 0
131 -165 0
165 -105 -131 0
166 -1 0
166 -2 0
1 2 -166 0
4 -167 0
3 -167 0
167 -4 -3 0
168 166 0
168 167 0
-168 -166 -167 0
169 168 0
169 145 0
-169 -168 -145 0
-170 -12 0
-170 -14 0
170 12 14 0
-171 -11 0
-171 -83 0
171 11 83 0
155 111 0
155 167 0
-155 -111 -167 0
126 172 0
-126 -172 0
13 -173 0
11 -173 0
173 -13 -11 0
-174 -13 0
-174 -14 0
174 13 14 0
12 -175 0
11 -175 0
175 -12 -11 0
-176 -1 0
-176 -2 0
176 1 2 0
-177 -141 0
-177 -176 0
177 141 176 0
-107 -4 0
-107 -5 0
107 4 5 0
179 178 0
179 109 0
-179 -178 -109 0
181 179 0
181 180 0
-181 -179 -180 0
182 -94 0
182 -144 0
94 144 -182 0
36 15 0
36 82 0
-36 -15 -82 0
-37 -181 0
-37 -182 0
37 181 182 0
-183 -4 0
-183 -5 0
183 4 5 0
-184 -1 0
-184 -6 0
184 1 6 0
185 184 0
185 117 0
-185 -184 -117 0
186 183 0
186 141 0
-186 -183 -141 0
187 -185 0
187 -186 0
185 186 -187 0
-189 -135 0
-189 -188 0
189 135 188 0
191 89 0
191 190 0
-191 -89 -190 0
-193 -192 0
-193 -191 0
193 192 191 0
126 116 0
126 171 0
-126 -116 -171 0
194 155 0
194 106 0
-194 -155 -106 0
195 102 0
-195 -102 0
54 196 0
-54 -196 0
-197 -126 0
-197 -194 0
197 126 194 0
90 170 0
90 173 0
-90 -170 -173 0
198 -90 0
198 -178 0
90 178 -198 0
-199 -196 0
-199 -197 0
199 196 197 0
200 198 0
200 199 0
-200 -198 -199 0
201 200 0
201 82 0
-201 -200 -82 0
202 -193 0
202 -101 0
193 101 -202 0
188 -13 0
188 -12 0
13 12 -188 0
-203 -93 0
-203 -188 0
203 93 188 0
89 174 0
89 175 0
-89 -174 -175 0
142 169 0
142 6 0
-142 -169 -6 0
190 187 0
190 189 0
-190 -187 -189 0
-204 -15 0
-204 -190 0
204 15 190 0
142 -205 0
134 -205 0
205 -142 -134 0
-206 -204 0
-206 -205 0
206 204 205 0
89 -207 0
46 -207 0
207 -89 -46 0
135 -208 0
120 -208 0
208 -135 -120 0
180 194 0
180 172 0
-180 -194 -172 0
192 55 0
192 143 0
-192 -55 -143 0
209 192 0
209 100 0
-209 -192 -100 0
210 -211 0
180 -211 0
211 -210 -180 0
212 206 0
212 207 0
-212 -206 -207 0
-34 -213 0
-34 -212 0
34 213 212 0
178 -177 0
178 -108 0
177 108 -178 0
-214 -91 0
-214 -178 0
214 91 178 0
215 195 0
215 15 0
-215 -195 -15 0
133 110 0
133 131 0
-133 -110 -131 0
217 216 0
217 139 0
-217 -216 -139 0
218 215 0
218 137 0
-218 -215 -137 0
140 218 -219 0
140 219 -218 0
217 -140 -219 0
219 -140 -217 0
-220 -144 0
-220 -214 0
220 144 214 0
213 209 0
213 211 0
-213 -209 -211 0
221 219 0
221 220 0
-221 -219 -220 0
82 31 0
-82 -31 0
-32 -213 0
-32 -221 0
32 213 221 0
46 203 0
46 222 0
-46 -203 -222 0
143 165 0
143 83 0
-143 -165 -83 0
210 208 0
210 92 0
-210 -208 -92 0
210 223 0
-210 -223 0
133 216 0
-133 -216 0
188 92 0
-188 -92 0
137 222 0
-137 -222 0
195 135 0
195 139 0
-195 -135 -139 0
-224 -222 0
-224 -103 0
224 222 103 0
216 140 -225 0
216 225 -140 0
92 -216 -225 0
225 -216 -92 0
-50 -224 0
-50 -225 0
50 224 225 0
-51 -109 0
-51 -223 0
51 109 223 0
54 -195 0
54 -84 0
195 84 -54 0
226 201 0
226 202 0
-226 -201 -202 0
17 -82 0
82 -17 0
230 0
-234 -232 0
-234 -233 0
234 232 233 0
-237 -235 0
-237 -236 0
237 235 236 0
-239 -236 0
-239 -238 0
239 236 238 0
-241 -236 0
-241 -240 0
241 236 240 0
-244 -242 0
-244 -243 0
244 242 243 0
-247 -245 0
-247 -246 0
247 245 246 0
-249 -245 0
-249 -248 0
249 245 248 0
-252 -250 0
-252 -251 0
252 250 251 0
261 -262 0
262 -261 0
262 -231 0
262 -260 0
231 260 -262 0
265 -266 0
266 -265 0
266 267 0
266 268 0
-266 -267 -268 0
269 -270 0
270 -269 0
270 271 0
270 272 0
-270 -271 -272 0
273 -274 0
274 -273 0
274 275 0
274 276 0
-274 -275 -276 0
279 277 -280 0
279 280 -277 0
278 -279 -280 0
280 -279 -278 0
283 281 -284 0
283 284 -281 0
282 -283 -284 0
284 -283 -282 0
287 285 -288 0
287 288 -285 0
286 -287 -288 0
288 -287 -286 0
291 289 -292 0
291 292 -289 0
290 -291 -292 0
292 -291 -290 0
295 293 -296 0
295 296 -293 0
294 -295 -296 0
296 -295 -294 0
299 -297 0
299 -298 0
297 298 -299 0
302 300 -303 0
302 303 -300 0
301 -302 -303 0
303 -302 -301 0
263 233 0
-263 -233 0
232 304 0
232 305 0
-232 -304 -305 0
306 307 0
-306 -307 0
308 -310 0
309 -310 0
310 -308 -309 0
300 311 0
-300 -311 0
312 -314 0
313 -314 0
314 -312 -313 0
315 -317 0
316 -317 0
317 -315 -316 0
318 -308 0
319 -308 0
308 -318 -319 0
320 -321 0
253 -321 0
321 -320 -253 0
322 242 0
-322 -242 0
319 -323 0
318 -323 0
323 -319 -318 0
324 325 0
-324 -325 0
326 325 0
326 305 0
-326 -325 -305 0
327 328 0
-327 -328 0
-331 -329 0
-331 -330 0
331 329 330 0
334 332 0
334 333 0
-334 -332 -333 0
314 335 0
-314 -335 0
330 336 0
-330 -336 0
254 -337 0
257 -337 0
337 -254 -257 0
253 338 0
-253 -338 0
338 295 0
-338 -295 0
294 339 0
-294 -339 0
340 316 0
-340 -316 0
257 341 0
-257 -341 0
341 342 0
-341 -342 0
255 287 0
-255 -287 0
-344 -343 0
-344 -340 0
344 343 340 0
254 345 0
-254 -345 0
347 -346 0
347 -329 0
346 329 -347 0
348 349 0
-348 -349 0
352 -350 0
352 -351 0
350 351 -352 0
-354 -345 0
-354 -353 0
354 345 353 0
313 -276 0
355 -276 0
276 -313 -355 0
356 -358 0
357 -358 0
358 -356 -357 0
359 -356 0
360 -356 0
356 -359 -360 0
350 283 0
350 357 0
-350 -283 -357 0
361 291 0
-361 -291 0
-363 -347 0
-363 -362 0
363 347 362 0
360 364 0
-360 -364 0
365 255 0
365 258 0
-365 -255 -258 0
332 279 0
-332 -279 0
363 268 0
-363 -268 0
330 348 0
-330 -348 0
348 366 0
-348 -366 0
320 -367 0
354 -367 0
367 -320 -354 0
343 329 0
-343 -329 0
329 368 0
-329 -368 0
306 369 0
-306 -369 0
253 353 0
-253 -353 0
340 360 0
-340 -360 0
255 370 0
-255 -370 0
-373 -371 0
-373 -372 0
373 371 372 0
346 306 0
-346 -306 0
257 374 0
-257 -374 0
258 332 0
-258 -332 0
375 -376 0
356 -376 0
376 -375 -356 0
254 361 0
-254 -361 0
-377 -365 0
-377 -254 0
377 365 254 0
256 283 0
-256 -283 0
304 264 0
304 325 0
-304 -264 -325 0
378 357 0
-378 -357 0
-379 -283 0
-379 -257 0
379 283 257 0
320 377 0
320 379 0
-320 -377 -379 0
380 361 0
380 258 0
-380 -361 -258 0
381 374 0
381 256 0
-381 -374 -256 0
-382 -381 0
-382 -370 0
382 381 370 0
-383 -380 0
-383 -353 0
383 380 353 0
359 343 0
359 346 0
-359 -343 -346 0
351 356 0
351 375 0
-351 -356 -375 0
378 311 0
378 301 0
-378 -311 -301 0
385 -384 0
385 -353 0
384 353 -385 0
386 385 0
386 293 0
-386 -385 -293 0
278 386 0
278 339 0
-278 -386 -339 0
-277 -384 0
-277 -387 0
277 384 387 0
375 382 0
375 383 0
-375 -382 -383 0
281 310 0
281 388 0
-281 -310 -388 0
-282 -370 0
-282 -389 0
282 370 389 0
389 367 0
389 358 0
-389 -367 -358 0
319 356 0
319 353 0
-319 -356 -353 0
309 376 0
309 345 0
-309 -376 -345 0
387 321 0
387 358 0
-387 -321 -358 0
323 290 0
-323 -290 0
387 289 0
-387 -289 0
318 -243 0
318 -357 0
243 357 -318 0
318 294 0
-318 -294 0
285 323 0
285 309 0
-285 -323 -309 0
389 286 0
-389 -286 0
255 -390 0
379 -390 0
390 -255 -379 0
-293 -351 0
-293 -378 0
293 351 378 0
388 376 0
388 370 0
-388 -376 -370 0
391 352 0
391 388 0
-391 -352 -388 0
392 391 0
392 342 0
-392 -391 -342 0
393 286 0
393 390 0
-393 -286 -390 0
297 392 0
297 393 0
-297 -392 -393 0
285 -298 0
342 -298 0
298 -285 -342 0
243 359 0
243 316 0
-243 -359 -316 0
243 302 0
-243 -302 0
240 259 0
240 235 0
-240 -259 -235 0
238 259 235 0
238 -259 -235 0
235 -238 -259 0
259 -238 -235 0
236 302 0
236 242 0
-236 -302 -242 0
331 -394 0
360 -394 0
394 -331 -360 0
395 -253 0
395 -254 0
253 254 -395 0
256 -396 0
255 -396 0
396 -256 -255 0
397 395 0
397 396 0
-397 -395 -396 0
398 397 0
398 374 0
-398 -397 -374 0
-399 -343 0
-399 -340 0
399 343 340 0
-400 -330 0
-400 -306 0
400 330 306 0
384 337 0
384 396 0
-384 -337 -396 0
355 401 0
-355 -401 0
346 -402 0
330 -402 0
402 -346 -330 0
-403 -346 0
-403 -340 0
403 346 340 0
343 -404 0
330 -404 0
404 -343 -330 0
-405 -253 0
-405 -254 0
405 253 254 0
-406 -370 0
-406 -405 0
406 370 405 0
-333 -256 0
-333 -257 0
333 256 257 0
408 407 0
408 335 0
-408 -407 -335 0
410 408 0
410 409 0
-410 -408 -409 0
411 -317 0
411 -373 0
317 373 -411 0
250 324 0
250 305 0
-250 -324 -305 0
-251 -410 0
-251 -411 0
251 410 411 0
-412 -256 0
-412 -257 0
412 256 257 0
-413 -253 0
-413 -258 0
413 253 258 0
414 413 0
414 345 0
-414 -413 -345 0
415 412 0
415 370 0
-415 -412 -370 0
416 -414 0
416 -415 0
414 415 -416 0
-418 -364 0
-418 -417 0
418 364 417 0
420 312 0
420 419 0
-420 -312 -419 0
-422 -421 0
-422 -420 0
422 421 420 0
355 344 0
355 400 0
-355 -344 -400 0
423 384 0
423 332 0
-423 -384 -332 0
424 327 0
-424 -327 0
275 425 0
-275 -425 0
-426 -355 0
-426 -423 0
426 355 423 0
313 399 0
313 402 0
-313 -399 -402 0
427 -313 0
427 -407 0
313 407 -427 0
-428 -425 0
-428 -426 0
428 425 426 0
429 427 0
429 428 0
-429 -427 -428 0
430 429 0
430 305 0
-430 -429 -305 0
431 -422 0
431 -326 0
422 326 -431 0
417 -346 0
417 -343 0
346 343 -417 0
-432 -316 0
-432 -417 0
432 316 417 0
312 403 0
312 404 0
-312 -403 -404 0
371 398 0
371 258 0
-371 -398 -258 0
419 416 0
419 418 0
-419 -416 -418 0
-433 -324 0
-433 -419 0
433 324 419 0
371 -434 0
363 -434 0
434 -371 -363 0
-435 -433 0
-435 -434 0
435 433 434 0
312 -436 0
267 -436 0
436 -312 -267 0
364 -437 0
349 -437 0
437 -364 -349 0
409 423 0
409 401 0
-409 -423 -401 0
421 276 0
421 372 0
-421 -276 -372 0
438 421 0
438 325 0
-438 -421 -325 0
439 -440 0
409 -440 0
440 -439 -409 0
441 435 0
441 436 0
-441 -435 -436 0
-248 -442 0
-248 -441 0
248 442 441 0
407 -406 0
407 -334 0
406 334 -407 0
-443 -314 0
-443 -407 0
443 314 407 0
444 424 0
444 324 0
-444 -424 -324 0
362 336 0
362 360 0
-362 -336 -360 0
446 445 0
446 368 0
-446 -445 -368 0
447 444 0
447 366 0
-447 -444 -366 0
369 447 -448 0
369 448 -447 0
446 -369 -448 0
448 -369 -446 0
-449 -373 0
-449 -443 0
449 373 443 0
442 438 0
442 440 0
-442 -438 -440 0
450 448 0
450 449 0
-450 -448 -449 0
305 245 0
-305 -245 0
-246 -442 0
-246 -450 0
246 442 450 0
267 432 0
267 451 0
-267 -432 -451 0
372 394 0
372 306 0
-372 -394 -306 0
439 437 0
439 315 0
-439 -437 -315 0
439 452 0
-439 -452 0
362 445 0
-362 -445 0
417 315 0
-417 -315 0
366 451 0
-366 -451 0
424 364 0
424 368 0
-424 -364 -368 0
-453 -451 0
-453 -328 0
453 451 328 0
445 369 -454 0
445 454 -369 0
315 -445 -454 0
454 -445 -315 0
-271 -453 0
-271 -454 0
271 453 454 0
-272 -335 0
-272 -452 0
272 335 452 0
275 -424 0
275 -307 0
424 307 -275 0
455 430 0
455 431 0
-455 -430 -431 0
230 -305 0
305 -230 0
21 -324 0
324 -21 0
23 -235 0
235 -23 0
25 -259 0
259 -25 0
27 -322 0
322 -27 0
30 -301 0
301 -30 0
33 -330 0
330 -33 0
35 -343 0
343 -35 0
38 -340 0
340 -38 0
59 -258 0
258 -59 0
63 -256 0
256 -63 0
67 -255 0
255 -67 0
71 -254 0
254 -71 0
75 -253 0
253 -75 0
78 -257 0
257 -78 0
80 -300 0
300 -80 0
226 -346 0
346 -226 0
459 0
-463 -461 0
-463 -462 0
463 461 462 0
-466 -464 0
-466 -465 0
466 464 465 0
-468 -465 0
-468 -467 0
468 465 467 0
-470 -465 0
-470 -469 0
470 465 469 0
-473 -471 0
-473 -472 0
473 471 472 0
-476 -474 0
-476 -475 0
476 474 475 0
-478 -474 0
-478 -477 0
478 474 477 0
-481 -479 0
-481 -480 0
481 479 480 0
490 -491 0
491 -490 0
491 -460 0
491 -489 0
460 489 -491 0
494 -495 0
495 -494 0
495 496 0
495 497 0
-495 -496 -497 0
498 -499 0
499 -498 0
499 500 0
499 501 0
-499 -500 -501 0
502 -503 0
503 -502 0
503 504 0
503 505 0
-503 -504 -505 0
508 506 -509 0
508 509 -506 0
507 -508 -509 0
509 -508 -507 0
512 510 -513 0
512 513 -510 0
511 -512 -513 0
513 -512 -511 0
516 514 -517 0
516 517 -514 0
515 -516 -517 0
517 -516 -515 0
520 518 -521 0
520 521 -518 0
519 -520 -521 0
521 -520 -519 0
524 522 -525 0
524 525 -522 0
523 -524 -525 0
525 -524 -523 0
528 -526 0
528 -527 0
526 527 -528 0
531 529 -532 0
531 532 -529 0
530 -531 -532 0
532 -531 -530 0
492 462 0
-492 -462 0
461 533 0
461 534 0
-461 -533 -534 0
535 536 0
-535 -536 0
537 -539 0
538 -539 0
539 -537 -538 0
529 540 0
-529 -540 0
541 -543 0
542 -543 0
543 -541 -542 0
544 -546 0
545 -546 0
546 -544 -545 0
547 -537 0
548 -537 0
537 -547 -548 0
549 -550 0
482 -550 0
550 -549 -482 0
551 471 0
-551 -471 0
548 -552 0
547 -552 0
552 -548 -547 0
553 554 0
-553 -554 0
555 554 0
555 534 0
-555 -554 -534 0
556 557 0
-556 -557 0
-560 -558 0
-560 -559 0
560 558 559 0
563 561 0
563 562 0
-563 -561 -562 0
543 564 0
-543 -564 0
559 565 0
-559 -565 0
483 -566 0
486 -566 0
566 -483 -486 0
482 567 0
-482 -567 0
567 524 0
-567 -524 0
523 568 0
-523 -568 0
569 545 0
-569 -545 0
486 570 0
-486 -570 0
570 571 0
-570 -571 0
484 516 0
-484 -516 0
-573 -572 0
-573 -569 0
573 572 569 0
483 574 0
-483 -574 0
576 -575 0
576 -558 0
575 558 -576 0
577 578 0
-577 -578 0
581 -579 0
581 -580 0
579 580 -581 0
-583 -574 0
-583 -582 0
583 574 582 0
542 -505 0
584 -505 0
505 -542 -584 0
585 -587 0
586 -587 0
587 -585 -586 0
588 -585 0
589 -585 0
585 -588 -589 0
579 512 0
579 586 0
-579 -512 -586 0
590 520 0
-590 -520 0
-592 -576 0
-592 -591 0
592 576 591 0
589 593 0
-589 -593 0
594 484 0
594 487 0
-594 -484 -487 0
561 508 0
-561 -508 0
592 497 0
-592 -497 0
559 577 0
-559 -577 0
577 595 0
-577 -595 0
549 -596 0
583 -596 0
596 -549 -583 0
572 558 0
-572 -558 0
558 597 0
-558 -597 0
535 598 0
-535 -598 0
482 582 0
-482 -582 0
569 589 0
-569 -589 0
484 599 0
-484 -599 0
-602 -600 0
-602 -601 0
602 600 601 0
575 535 0
-575 -535 0
486 603 0
-486 -603 0
487 561 0
-487 -561 0
604 -605 0
585 -605 0
605 -604 -585 0
483 590 0
-483 -590 0
-606 -594 0
-606 -483 0
606 594 483 0
485 512 0
-485 -512 0
533 493 0
533 554 0
-533 -493 -554 0
607 586 0
-607 -586 0
-608 -512 0
-608 -486 0
608 512 486 0
549 606 0
549 608 0
-549 -606 -608 0
609 590 0
609 487 0
-609 -590 -487 0
610 603 0
610 485 0
-610 -603 -485 0
-611 -610 0
-611 -599 0
611 610 599 0
-612 -609 0
-612 -582 0
612 609 582 0
588 572 0
588 575 0
-588 -572 -575 0
580 585 0
580 604 0
-580 -585 -604 0
607 540 0
607 530 0
-607 -540 -530 0
614 -613 0
614 -582 0
613 582 -614 0
615 614 0
615 522 0
-615 -614 -522 0
507 615 0
507 568 0
-507 -615 -568 0
-506 -613 0
-506 -616 0
506 613 616 0
604 611 0
604 612 0
-604 -611 -612 0
510 539 0
510 617 0
-510 -539 -617 0
-511 -599 0
-511 -618 0
511 599 618 0
618 596 0
618 587 0
-618 -596 -587 0
548 585 0
548 582 0
-548 -585 -582 0
538 605 0
538 574 0
-538 -605 -574 0
616 550 0
616 587 0
-616 -550 -587 0
552 519 0
-552 -519 0
616 518 0
-616 -518 0
547 -472 0
547 -586 0
472 586 -547 0
547 523 0
-547 -523 0
514 552 0
514 538 0
-514 -552 -538 0
618 515 0
-618 -515 0
484 -619 0
608 -619 0
619 -484 -608 0
-522 -580 0
-522 -607 0
522 580 607 0
617 605 0
617 599 0
-617 -605 -599 0
620 581 0
620 617 0
-620 -581 -617 0
621 620 0
621 571 0
-621 -620 -571 0
622 515 0
622 619 0
-622 -515 -619 0
526 621 0
526 622 0
-526 -621 -622 0
514 -527 0
571 -527 0
527 -514 -571 0
472 588 0
472 545 0
-472 -588 -545 0
472 531 0
-472 -531 0
469 488 0
469 464 0
-469 -488 -464 0
467 488 464 0
467 -488 -464 0
464 -467 -488 0
488 -467 -464 0
465 531 0
465 471 0
-465 -531 -471 0
560 -623 0
589 -623 0
623 -560 -589 0
624 -482 0
624 -483 0
482 483 -624 0
485 -625 0
484 -625 0
625 -485 -484 0
626 624 0
626 625 0
-626 -624 -625 0
627 626 0
627 603 0
-627 -626 -603 0
-628 -572 0
-628 -569 0
628 572 569 0
-629 -559 0
-629 -535 0
629 559 535 0
613 566 0
613 625 0
-613 -566 -625 0
584 630 0
-584 -630 0
575 -631 0
559 -631 0
631 -575 -559 0
-632 -575 0
-632 -569 0
632 575 569 0
572 -633 0
559 -633 0
633 -572 -559 0
-634 -482 0
-634 -483 0
634 482 483 0
-635 -599 0
-635 -634 0
635 599 634 0
-562 -485 0
-562 -486 0
562 485 486 0
637 636 0
637 564 0
-637 -636 -564 0
639 637 0
639 638 0
-639 -637 -638 0
640 -546 0
640 -602 0
546 602 -640 0
479 553 0
479 534 0
-479 -553 -534 0
-480 -639 0
-480 -640 0
480 639 640 0
-641 -485 0
-641 -486 0
641 485 486 0
-642 -482 0
-642 -487 0
642 482 487 0
643 642 0
643 574 0
-643 -642 -574 0
644 641 0
644 599 0
-644 -641 -599 0
645 -643 0
645 -644 0
643 644 -645 0
-647 -593 0
-647 -646 0
647 593 646 0
649 541 0
649 648 0
-649 -541 -648 0
-651 -650 0
-651 -649 0
651 650 649 0
584 573 0
584 629 0
-584 -573 -629 0
652 613 0
652 561 0
-652 -613 -561 0
653 556 0
-653 -556 0
504 654 0
-504 -654 0
-655 -584 0
-655 -652 0
655 584 652 0
542 628 0
542 631 0
-542 -628 -631 0
656 -542 0
656 -636 0
542 636 -656 0
-657 -654 0
-657 -655 0
657 654 655 0
658 656 0
658 657 0
-658 -656 -657 0
659 658 0
659 534 0
-659 -658 -534 0
660 -651 0
660 -555 0
651 555 -660 0
646 -575 0
646 -572 0
575 572 -646 0
-661 -545 0
-661 -646 0
661 545 646 0
541 632 0
541 633 0
-541 -632 -633 0
600 627 0
600 487 0
-600 -627 -487 0
648 645 0
648 647 0
-648 -645 -647 0
-662 -553 0
-662 -648 0
662 553 648 0
600 -663 0
592 -663 0
663 -600 -592 0
-664 -662 0
-664 -663 0
664 662 663 0
541 -665 0
496 -665 0
665 -541 -496 0
593 -666 0
578 -666 0
666 -593 -578 0
638 652 0
638 630 0
-638 -652 -630 0
650 505 0
650 601 0
-650 -505 -601 0
667 650 0
667 554 0
-667 -650 -554 0
668 -669 0
638 -669 0
669 -668 -638 0
670 664 0
670 665 0
-670 -664 -665 0
-477 -671 0
-477 -670 0
477 671 670 0
636 -635 0
636 -563 0
635 563 -636 0
-672 -543 0
-672 -636 0
672 543 636 0
673 653 0
673 553 0
-673 -653 -553 0
591 565 0
591 589 0
-591 -565 -589 0
675 674 0
675 597 0
-675 -674 -597 0
676 673 0
676 595 0
-676 -673 -595 0
598 676 -677 0
598 677 -676 0
675 -598 -677 0
677 -598 -675 0
-678 -602 0
-678 -672 0
678 602 672 0
671 667 0
671 669 0
-671 -667 -669 0
679 677 0
679 678 0
-679 -677 -678 0
534 474 0
-534 -474 0
-475 -671 0
-475 -679 0
475 671 679 0
496 661 0
496 680 0
-496 -661 -680 0
601 623 0
601 535 0
-601 -623 -535 0
668 666 0
668 544 0
-668 -666 -544 0
668 681 0
-668 -681 0
591 674 0
-591 -674 0
646 544 0
-646 -544 0
595 680 0
-595 -680 0
653 593 0
653 597 0
-653 -593 -597 0
-682 -680 0
-682 -557 0
682 680 557 0
674 598 -683 0
674 683 -598 0
544 -674 -683 0
683 -674 -544 0
-500 -682 0
-500 -683 0
500 682 683 0
-501 -564 0
-501 -681 0
501 564 681 0
504 -653 0
504 -536 0
653 536 -504 0
684 659 0
684 660 0
-684 -659 -660 0
459 -534 0
534 -459 0
234 -553 0
553 -234 0
237 -464 0
464 -237 0
239 -488 0
488 -239 0
241 -551 0
551 -241 0
244 -530 0
530 -244 0
247 -559 0
559 -247 0
249 -572 0
572 -249 0
252 -569 0
569 -252 0
280 -487 0
487 -280 0
284 -485 0
485 -284 0
288 -484 0
484 -288 0
292 -483 0
483 -292 0
296 -482 0
482 -296 0
299 -486 0
486 -299 0
303 -529 0
529 -303 0
455 -575 0
575 -455 0
688 0
-692 -690 0
-692 -691 0
692 690 691 0
-695 -693 0
-695 -694 0
695 693 694 0
-697 -694 0
-697 -696 0
697 694 696 0
-699 -694 0
-699 -698 0
699 694 698 0
-702 -700 0
-702 -701 0
702 700 701 0
-705 -703 0
-705 -704 0
705 703 704 0
-707 -703 0
-707 -706 0
707 703 706 0
-710 -708 0
-710 -709 0
710 708 709 0
719 -720 0
720 -719 0
720 -689 0
720 -718 0
689 718 -720 0
723 -724 0
724 -723 0
724 725 0
724 726 0
-724 -725 -726 0
727 -728 0
728 -727 0
728 729 0
728 730 0
-728 -729 -730 0
731 -732 0
732 -731 0
732 733 0
732 734 0
-732 -733 -734 0
737 735 -738 0
737 738 -735 0
736 -737 -738 0
738 -737 -736 0
741 739 -742 0
741 742 -739 0
740 -741 -742 0
742 -741 -740 0
745 743 -746 0
745 746 -743 0
744 -745 -746 0
746 -745 -744 0
749 747 -750 0
749 750 -747 0
748 -749 -750 0
750 -749 -748 0
753 751 -754 0
753 754 -751 0
752 -753 -754 0
754 -753 -752 0
757 -755 0
757 -756 0
755 756 -757 0
760 758 -761 0
760 761 -758 0
759 -760 -761 0
761 -760 -759 0
721 691 0
-721 -691 0
690 762 0
690 763 0
-690 -762 -763 0
764 765 0
-764 -765 0
766 -768 0
767 -768 0
768 -766 -767 0
758 769 0
-758 -769 0
770 -772 0
771 -772 0
772 -770 -771 0
773 -775 0
774 -775 0
775 -773 -774 0
776 -766 0
777 -766 0
766 -776 -777 0
778 -779 0
711 -779 0
779 -778 -711 0
780 700 0
-780 -700 0
777 -781 0
776 -781 0
781 -777 -776 0
782 783 0
-782 -783 0
784 783 0
784 763 0
-784 -783 -763 0
785 786 0
-785 -786 0
-789 -787 0
-789 -788 0
789 787 788 0
792 790 0
792 791 0
-792 -790 -791 0
772 793 0
-772 -793 0
788 794 0
-788 -794 0
712 -795 0
715 -795 0
795 -712 -715 0
711 796 0
-711 -796 0
796 753 0
-796 -753 0
752 797 0
-752 -797 0
798 774 0
-798 -774 0
715 799 0
-715 -799 0
799 800 0
-799 -800 0
713 745 0
-713 -745 0
-802 -801 0
-802 -798 0
802 801 798 0
712 803 0
-712 -803 0
805 -804 0
805 -787 0
804 787 -805 0
806 807 0
-806 -807 0
810 -808 0
810 -809 0
808 809 -810 0
-812 -803 0
-812 -811 0
812 803 811 0
771 -734 0
813 -734 0
734 -771 -813 0
814 -816 0
815 -816 0
816 -814 -815 0
817 -814 0
818 -814 0
814 -817 -818 0
808 741 0
808 815 0
-808 -741 -815 0
819 749 0
-819 -749 0
-821 -805 0
-821 -820 0
821 805 820 0
818 822 0
-818 -822 0
823 713 0
823 716 0
-823 -713 -716 0
790 737 0
-790 -737 0
821 726 0
-821 -726 0
788 806 0
-788 -806 0
806 824 0
-806 -824 0
778 -825 0
812 -825 0
825 -778 -812 0
801 787 0
-801 -787 0
787 826 0
-787 -826 0
764 827 0
-764 -827 0
711 811 0
-711 -811 0
798 818 0
-798 -818 0
713 828 0
-713 -828 0
-831 -829 0
-831 -830 0
831 829 830 0
804 764 0
-804 -764 0
715 832 0
-715 -832 0
716 790 0
-716 -790 0
833 -834 0
814 -834 0
834 -833 -814 0
712 819 0
-712 -819 0
-835 -823 0
-835 -712 0
835 823 712 0
714 741 0
-714 -741 0
762 722 0
762 783 0
-762 -722 -783 0
836 815 0
-836 -815 0
-837 -741 0
-837 -715 0
837 741 715 0
778 835 0
778 837 0
-778 -835 -837 0
838 819 0
838 716 0
-838 -819 -716 0
839 832 0
839 714 0
-839 -832 -714 0
-840 -839 0
-840 -828 0
840 839 828 0
-841 -838 0
-841 -811 0
841 838 811 0
817 801 0
817 804 0
-817 -801 -804 0
809 814 0
809 833 0
-809 -814 -833 0
836 769 0
836 759 0
-836 -769 -759 0
843 -842 0
843 -811 0
842 811 -843 0
844 843 0
844 751 0
-844 -843 -751 0
736 844 0
736 797 0
-736 -844 -797 0
-735 -842 0
-735 -845 0
735 842 845 0
833 840 0
833 841 0
-833 -840 -841 0
739 768 0
739 846 0
-739 -768 -846 0
-740 -828 0
-740 -847 0
740 828 847 0
847 825 0
847 816 0
-847 -825 -816 0
777 814 0
777 811 0
-777 -814 -811 0
767 834 0
767 803 0
-767 -834 -803 0
845 779 0
845 816 0
-845 -779 -816 0
781 748 0
-781 -748 0
845 747 0
-845 -747 0
776 -701 0
776 -815 0
701 815 -776 0
776 752 0
-776 -752 0
743 781 0
743 767 0
-743 -781 -767 0
847 744 0
-847 -744 0
713 -848 0
837 -848 0
848 -713 -837 0
-751 -809 0
-751 -836 0
751 809 836 0
846 834 0
846 828 0
-846 -834 -828 0
849 810 0
849 846 0
-849 -810 -846 0
850 849 0
850 800 0
-850 -849 -800 0
851 744 0
851 848 0
-851 -744 -848 0
755 850 0
755 851 0
-755 -850 -851 0
743 -756 0
800 -756 0
756 -743 -800 0
701 817 0
701 774 0
-701 -817 -774 0
701 760 0
-701 -760 0
698 717 0
698 693 0
-698 -717 -693 0
696 717 693 0
696 -717 -693 0
693 -696 -717 0
717 -696 -693 0
694 760 0
694 700 0
-694 -760 -700 0
789 -852 0
818 -852 0
852 -789 -818 0
853 -711 0
853 -712 0
711 712 -853 0
714 -854 0
713 -854 0
854 -714 -713 0
855 853 0
855 854 0
-855 -853 -854 0
856 855 0
856 832 0
-856 -855 -832 0
-857 -801 0
-857 -798 0
857 801 798 0
-858 -788 0
-858 -764 0
858 788 764 0
842 795 0
842 854 0
-842 -795 -854 0
813 859 0
-813 -859 0
804 -860 0
788 -860 0
860 -804 -788 0
-861 -804 0
-861 -798 0
861 804 798 0
801 -862 0
788 -862 0
862 -801 -788 0
-863 -711 0
-863 -712 0
863 711 712 0
-864 -828 0
-864 -863 0
864 828 863 0
-791 -714 0
-791 -715 0
791 714 715 0
866 865 0
866 793 0
-866 -865 -793 0
868 866 0
868 867 0
-868 -866 -867 0
869 -775 0
869 -831 0
775 831 -869 0
708 782 0
708 763 0
-708 -782 -763 0
-709 -868 0
-709 -869 0
709 868 869 0
-870 -714 0
-870 -715 0
870 714 715 0
-871 -711 0
-871 -716 0
871 711 716 0
872 871 0
872 803 0
-872 -871 -803 0
873 870 0
873 828 0
-873 -870 -828 0
874 -872 0
874 -873 0
872 873 -874 0
-876 -822 0
-876 -875 0
876 822 875 0
878 770 0
878 877 0
-878 -770 -877 0
-880 -879 0
-880 -878 0
880 879 878 0
813 802 0
813 858 0
-813 -802 -858 0
881 842 0
881 790 0
-881 -842 -790 0
882 785 0
-882 -785 0
733 883 0
-733 -883 0
-884 -813 0
-884 -881 0
884 813 881 0
771 857 0
771 860 0
-771 -857 -860 0
885 -771 0
885 -865 0
771 865 -885 0
-886 -883 0
-886 -884 0
886 883 884 0
887 885 0
887 886 0
-887 -885 -886 0
888 887 0
888 763 0
-888 -887 -763 0
889 -880 0
889 -784 0
880 784 -889 0
875 -804 0
875 -801 0
804 801 -875 0
-890 -774 0
-890 -875 0
890 774 875 0
770 861 0
770 862 0
-770 -861 -862 0
829 856 0
829 716 0
-829 -856 -716 0
877 874 0
877 876 0
-877 -874 -876 0
-891 -782 0
-891 -877 0
891 782 877 0
829 -892 0
821 -892 0
892 -829 -821 0
-893 -891 0
-893 -892 0
893 891 892 0
770 -894 0
725 -894 0
894 -770 -725 0
822 -895 0
807 -895 0
895 -822 -807 0
867 881 0
867 859 0
-867 -881 -859 0
879 734 0
879 830 0
-879 -734 -830 0
896 879 0
896 783 0
-896 -879 -783 0
897 -898 0
867 -898 0
898 -897 -867 0
899 893 0
899 894 0
-899 -893 -894 0
-706 -900 0
-706 -899 0
706 900 899 0
865 -864 0
865 -792 0
864 792 -865 0
-901 -772 0
-901 -865 0
901 772 865 0
902 882 0
902 782 0
-902 -882 -782 0
820 794 0
820 818 0
-820 -794 -818 0
904 903 0
904 826 0
-904 -903 -826 0
905 902 0
905 824 0
-905 -902 -824 0
827 905 -906 0
827 906 -905 0
904 -827 -906 0
906 -827 -904 0
-907 -831 0
-907 -901 0
907 831 901 0
900 896 0
900 898 0
-900 -896 -898 0
908 906 0
908 907 0
-908 -906 -907 0
763 703 0
-763 -703 0
-704 -900 0
-704 -908 0
704 900 908 0
725 890 0
725 909 0
-725 -890 -909 0
830 852 0
830 764 0
-830 -852 -764 0
897 895 0
897 773 0
-897 -895 -773 0
897 910 0
-897 -910 0
820 903 0
-820 -903 0
875 773 0
-875 -773 0
824 909 0
-824 -909 0
882 822 0
882 826 0
-882 -822 -826 0
-911 -909 0
-911 -786 0
911 909 786 0
903 827 -912 0
903 912 -827 0
773 -903 -912 0
912 -903 -773 0
-729 -911 0
-729 -912 0
729 911 912 0
-730 -793 0
-730 -910 0
730 793 910 0
733 -882 0
733 -765 0
882 765 -733 0
913 888 0
913 889 0
-913 -888 -889 0
688 -763 0
763 -688 0
463 -782 0
782 -463 0
466 -693 0
693 -466 0
468 -717 0
717 -468 0
470 -780 0
780 -470 0
473 -759 0
759 -473 0
476 -788 0
788 -476 0
478 -801 0
801 -478 0
481 -798 0
798 -481 0
509 -716 0
716 -509 0
513 -714 0
714 -513 0
517 -713 0
713 -517 0
521 -712 0
712 -521 0
525 -711 0
711 -525 0
528 -715 0
715 -528 0
532 -758 0
758 -532 0
684 -804 0
804 -684 0
732 -914 0
720 -914 0
914 -732 -720 0
915 916 0
-915 -916 0
914 915 0
-914 -915 0
916 0
